22
3 11 36 9 
3 50 13 44 
3 22 56 35 
2 31 25 
2 58 43 
2 34 16 
3 53 26 28 
2 49 42 
3 39 1 2 
3 3 37 24 
3 18 46 15 
3 40 48 47 
3 51 52 33 
3 54 59 29 
3 5 4 23 
2 7 10 
3 27 57 45 
3 30 8 21 
3 32 38 17 
3 60 6 41 
3 12 20 14 
2 19 55 
